nN = 5;
nR = 25;
nH = 2;

a = [[18, 19, 19, 17, 24, 25, 24, 25, 25, 23, 20, 21, 25, 17, 25, 21, 25, 19, 23, 19, 20, 15, 25, 23, 17], [25, 17, 18, 16, 18, 15, 23, 20, 19, 22, 23, 18, 17, 16, 16, 24, 16, 23, 23, 24, 19, 17, 15, 17, 17], [17, 25, 15, 23, 21, 20, 24, 17, 21, 22, 22, 15, 18, 23, 17, 22, 20, 24, 19, 18, 15, 15, 18, 19, 19], [21, 16, 25, 23, 18, 21, 18, 16, 21, 21, 15, 21, 24, 23, 24, 23, 20, 25, 24, 18, 19, 23, 22, 22, 16], [24, 16, 24, 19, 16, 25, 23, 25, 17, 21, 21, 22, 17, 25, 19, 21, 23, 19, 17, 24, 19, 15, 20, 15, 20]];
c = [[[0, 0, 0, 0, 0, 0, 0, 0, 0, 0, 0, 0, 0, 0, 0, 0, 0, 0, 0, 0, 0, 0, 0, 0, 0], [35, 49, 43, 31, 34, 31, 48, 47, 33, 40, 44, 35, 48, 50, 42, 33, 43, 37, 50, 35, 36, 45, 50, 35, 32], [47, 41, 35, 44, 31, 42, 50, 50, 46, 40, 46, 42, 35, 35, 31, 34, 32, 31, 49, 46, 40, 38, 37, 33, 35], [43, 40, 34, 31, 30, 44, 33, 38, 44, 46, 32, 45, 48, 41, 41, 35, 44, 30, 45, 36, 43, 49, 40, 33, 36], [37, 43, 48, 32, 32, 50, 36, 30, 36, 46, 33, 34, 39, 33, 34, 42, 48, 45, 39, 41, 43, 34, 39, 46, 47]], [[0, 0, 0, 0, 0, 0, 0, 0, 0, 0, 0, 0, 0, 0, 0, 0, 0, 0, 0, 0, 0, 0, 0, 0, 0], [0, 0, 0, 0, 0, 0, 0, 0, 0, 0, 0, 0, 0, 0, 0, 0, 0, 0, 0, 0, 0, 0, 0, 0, 0], [35, 42, 37, 37, 45, 33, 44, 40, 49, 49, 37, 35, 50, 35, 49, 35, 40, 43, 44, 36, 40, 45, 49, 30, 39], [42, 46, 43, 44, 43, 44, 30, 50, 42, 33, 42, 44, 35, 44, 46, 42, 34, 42, 39, 44, 36, 47, 36, 35, 32], [46, 31, 50, 50, 48, 43, 39, 42, 32, 37, 48, 47, 39, 42, 36, 30, 38, 36, 35, 44, 47, 49, 42, 48, 38]], [[0, 0, 0, 0, 0, 0, 0, 0, 0, 0, 0, 0, 0, 0, 0, 0, 0, 0, 0, 0, 0, 0, 0, 0, 0], [0, 0, 0, 0, 0, 0, 0, 0, 0, 0, 0, 0, 0, 0, 0, 0, 0, 0, 0, 0, 0, 0, 0, 0, 0], [0, 0, 0, 0, 0, 0, 0, 0, 0, 0, 0, 0, 0, 0, 0, 0, 0, 0, 0, 0, 0, 0, 0, 0, 0], [50, 33, 48, 44, 39, 41, 30, 37, 33, 41, 38, 34, 31, 47, 40, 44, 43, 30, 50, 48, 48, 40, 47, 44, 48], [44, 35, 48, 45, 36, 38, 34, 39, 46, 34, 47, 30, 32, 46, 46, 49, 41, 42, 32, 33, 44, 50, 34, 40, 31]], [[0, 0, 0, 0, 0, 0, 0, 0, 0, 0, 0, 0, 0, 0, 0, 0, 0, 0, 0, 0, 0, 0, 0, 0, 0], [0, 0, 0, 0, 0, 0, 0, 0, 0, 0, 0, 0, 0, 0, 0, 0, 0, 0, 0, 0, 0, 0, 0, 0, 0], [0, 0, 0, 0, 0, 0, 0, 0, 0, 0, 0, 0, 0, 0, 0, 0, 0, 0, 0, 0, 0, 0, 0, 0, 0], [0, 0, 0, 0, 0, 0, 0, 0, 0, 0, 0, 0, 0, 0, 0, 0, 0, 0, 0, 0, 0, 0, 0, 0, 0], [41, 36, 50, 49, 44, 38, 42, 39, 46, 48, 46, 40, 50, 42, 30, 43, 42, 39, 34, 49, 37, 31, 50, 40, 50]], [[0, 0, 0, 0, 0, 0, 0, 0, 0, 0, 0, 0, 0, 0, 0, 0, 0, 0, 0, 0, 0, 0, 0, 0, 0], [0, 0, 0, 0, 0, 0, 0, 0, 0, 0, 0, 0, 0, 0, 0, 0, 0, 0, 0, 0, 0, 0, 0, 0, 0], [0, 0, 0, 0, 0, 0, 0, 0, 0, 0, 0, 0, 0, 0, 0, 0, 0, 0, 0, 0, 0, 0, 0, 0, 0], [0, 0, 0, 0, 0, 0, 0, 0, 0, 0, 0, 0, 0, 0, 0, 0, 0, 0, 0, 0, 0, 0, 0, 0, 0], [0, 0, 0, 0, 0, 0, 0, 0, 0, 0, 0, 0, 0, 0, 0, 0, 0, 0, 0, 0, 0, 0, 0, 0, 0]]];

q = [[[25, 125], [23, 109], [5, 109], [13, 112], [6, 121], [15, 115], [24, 125], [9, 111], [17, 109], [11, 118], [5, 105], [6, 112], [8, 114], [14, 122], [9, 111], [9, 106], [21, 122], [23, 105], [13, 116], [8, 107], [22, 117], [20, 117], [24, 121], [15, 122], [20, 125]], [[18, 117], [8, 124], [5, 111], [20, 123], [8, 125], [7, 106], [13, 120], [17, 122], [9, 125], [16, 119], [19, 114], [11, 125], [6, 120], [12, 118], [25, 125], [23, 122], [9, 110], [21, 122], [11, 123], [15, 117], [24, 109], [23, 116], [15, 115], [21, 116], [12, 110]], [[7, 116], [25, 110], [13, 119], [9, 105], [16, 110], [16, 116], [8, 117], [17, 115], [5, 108], [17, 107], [10, 118], [18, 121], [21, 120], [25, 117], [17, 115], [24, 120], [20, 116], [16, 108], [9, 108], [18, 120], [18, 124], [18, 114], [16, 106], [6, 109], [24, 114]], [[25, 115], [11, 109], [8, 124], [7, 114], [25, 115], [20, 119], [24, 108], [16, 110], [9, 122], [15, 106], [22, 115], [10, 107], [17, 117], [6, 106], [22, 117], [11, 121], [19, 123], [20, 109], [14, 121], [14, 125], [8, 115], [18, 123], [22, 123], [18, 118], [22, 106]], [[7, 113], [16, 111], [20, 112], [18, 113], [13, 123], [10, 111], [15, 111], [20, 112], [5, 107], [19, 113], [11, 120], [6, 115], [11, 111], [23, 116], [15, 114], [21, 116], [15, 109], [20, 108], [21, 113], [11, 110], [9, 124], [25, 112], [17, 118], [18, 105], [12, 108]]];
Q = [[58, 461], [58, 473], [62, 457], [64, 463], [60, 452]];
